nPeces = 20;

durada = [35,50,45,35,50,5,45,5,20,20,5,45,10,5,20,15,5,45,30,35];

nInstruments = 4;

requereix = [| 3, 1, 2, 0, 
| 2, 0, 0, 2, 
| 2, 0, 3, 2, 
| 0, 2, 1, 1, 
| 3, 0, 0, 2, 
| 2, 0, 2, 3, 
| 3, 3, 0, 3, 
| 3, 0, 0, 2, 
| 3, 2, 1, 0, 
| 2, 0, 2, 3, 
| 1, 2, 2, 0, 
| 0, 0, 3, 3, 
| 1, 3, 2, 1, 
| 0, 2, 1, 2, 
| 3, 3, 0, 0, 
| 3, 2, 1, 1, 
| 1, 1, 2, 3, 
| 3, 0, 3, 1, 
| 0, 1, 3, 1, 
| 3, 0, 0, 2, 
|];

nMusics = 20;

saptocar = [| true, false, false, false, 
| true, true, true, false, 
| false, true, false, false, 
| false, false, false, true, 
| false, true, true, false, 
| true, false, false, true, 
| true, true, false, true, 
| true, true, false, false, 
| false, false, true, true, 
| true, false, false, true, 
| true, false, false, true, 
| true, false, false, true, 
| false, true, false, true, 
| true, false, false, false, 
| false, false, true, false, 
| false, false, false, true, 
| false, true, false, true, 
| true, false, false, false, 
| true, false, false, true, 
| true, true, false, true, 
|];

pressupost = 1853;

salari = [2,3,2,2,2,2,3,2,2,2,2,2,2,2,2,2,2,2,2,3];

nPrecs = 25;
pred = [1,1,2,2,3,3,3,4,4,5,6,6,7,8,9,10,11,12,12,13,14,15,16,16,17];
succ = [8,15,10,14,11,4,5,10,6,9,16,7,12,10,17,13,18,20,14,19,19,17,17,19,18];

